qbf_easy_train/easy_2503_UNSAT.qdimacs
p cnf 42 121
a 40 3 20 0
e 1 2 4 5 6 7 8 9 10 11 12 13 14 15 16 17 18 19 21 22 23 24 25 26 27 28 29 30 31 32 33 34 35 36 37 38 39 41 42 0
3 -1 0
3 -2 0
1 2 -3 0
-5 -4 0
-5 -4 0
4 5 0
7 -5 0
7 -6 0
5 6 -7 0
-3 7 -8 0
3 -7 -8 0
-3 -7 8 0
3 7 8 0
-6 -4 -9 0
6 4 -9 0
-6 4 9 0
6 -4 9 0
-9 10 0
9 10 0
-11 8 0
-11 10 0
-8 -10 11 0
-12 4 0
-12 1 0
-4 -1 12 0
14 -12 0
14 -13 0
12 13 -14 0
-4 -14 -15 0
4 14 -15 0
-4 14 15 0
4 -14 15 0
-15 -12 -16 0
15 12 -16 0
-15 12 16 0
15 -12 16 0
18 14 0
18 14 0
-14 -18 0
-19 -17 0
-19 18 0
17 -18 19 0
-20 21 0
20 21 0
-21 5 -22 0
21 -5 -22 0
-21 -5 22 0
21 5 22 0
22 12 -23 0
-22 -12 -23 0
22 -12 23 0
-22 12 23 0
24 23 0
24 -22 0
-23 22 -24 0
25 19 0
25 24 0
-19 -24 -25 0
16 25 -26 0
-16 -25 -26 0
16 -25 26 0
-16 25 26 0
27 13 0
27 13 0
-13 -27 0
27 6 -28 0
-27 -6 -28 0
27 -6 28 0
-27 6 28 0
-29 23 0
-29 -28 0
-23 28 29 0
31 -30 0
31 2 0
30 -2 -31 0
-32 -13 0
-32 12 0
13 -12 32 0
33 31 0
33 -32 0
-31 32 -33 0
-34 -29 0
-34 -33 0
29 33 34 0
-26 34 -35 0
26 -34 -35 0
-26 -34 35 0
26 34 35 0
1 -20 -36 0
-1 20 -36 0
1 20 36 0
-1 -20 36 0
37 27 0
37 -23 0
-27 23 -37 0
38 -36 0
38 37 0
36 -37 -38 0
39 35 0
39 -38 0
-35 38 -39 0
40 -31 0
40 31 0
-41 -39 0
-41 40 0
39 -40 41 0
42 11 0
42 -41 0
-11 41 -42 0
-33 -5 16 38 24 14 13 -6 0
40 38 -35 41 -7 -30 18 23 0
14 15 -31 21 -32 -42 33 0
27 19 -33 -4 -32 0
-37 -23 -3 0
35 -5 7 0
-32 13 -26 -36 -2 -3 -34 -42 0
28 25 -26 -39 29 19 0
-38 31 4 -40 0
-12 13 1 16 35 -2 22 0
-40 21 16 -34 -38 -27 0
42 0
