sat_easy_train/easy_2503_UNSAT.dimacs
p cnf 127 435
3 -1 0
3 -2 0
1 2 -3 0
-4 -5 -6 0
4 5 -6 0
-4 5 6 0
4 -5 6 0
1 -6 -7 0
-1 6 -7 0
1 6 7 0
-1 -6 7 0
8 -3 0
8 7 0
3 -7 -8 0
8 9 -10 0
-8 -9 -10 0
8 -9 10 0
-8 9 10 0
-12 11 0
-12 9 0
-11 -9 12 0
-13 2 -14 0
13 -2 -14 0
-13 -2 14 0
13 2 14 0
15 12 0
15 -14 0
-12 14 -15 0
9 -15 -16 0
-9 15 -16 0
9 15 16 0
-9 -15 16 0
18 -16 0
18 17 0
16 -17 -18 0
4 20 -21 0
-4 -20 -21 0
4 -20 21 0
-4 20 21 0
-22 -21 0
-22 1 0
21 -1 22 0
-23 19 0
-23 22 0
-19 -22 23 0
24 -18 0
24 23 0
18 -23 -24 0
-10 -24 -25 0
10 24 -25 0
-10 24 25 0
10 -24 25 0
27 26 0
27 -11 0
-26 11 -27 0
13 27 -28 0
-13 -27 -28 0
13 -27 28 0
-13 27 28 0
30 -28 0
30 -29 0
28 29 -30 0
31 -4 0
31 30 0
4 -30 -31 0
32 -31 0
32 -4 0
31 4 -32 0
20 26 -33 0
-20 -26 -33 0
20 -26 33 0
-20 26 33 0
34 -19 0
34 33 0
19 -33 -34 0
-35 32 0
-35 34 0
-32 -34 35 0
-36 -28 0
-36 14 0
28 -14 36 0
37 36 0
37 -20 0
-36 20 -37 0
-38 23 0
-38 37 0
-23 -37 38 0
39 35 0
39 38 0
-35 -38 -39 0
-40 -11 0
-40 18 0
11 -18 40 0
41 26 0
41 -20 0
-26 20 -41 0
-43 -30 0
-43 -42 0
30 42 43 0
-44 -41 0
-44 43 0
41 -43 44 0
44 -41 -45 0
-44 41 -45 0
44 41 45 0
-44 -41 45 0
46 40 0
46 -45 0
-40 45 -46 0
-47 19 0
-47 -20 0
-19 20 47 0
-47 -15 -48 0
47 15 -48 0
-47 15 48 0
47 -15 48 0
49 -46 0
49 -48 0
46 48 -49 0
-39 -49 -50 0
39 49 -50 0
-39 49 50 0
39 -49 50 0
25 -50 -51 0
-25 50 -51 0
25 50 51 0
-25 -50 51 0
52 -21 0
52 4 0
21 -4 -52 0
43 52 -53 0
-43 -52 -53 0
43 -52 53 0
-43 52 53 0
54 20 0
54 -53 0
-20 53 -54 0
-22 -27 -55 0
22 27 -55 0
-22 27 55 0
22 -27 55 0
-9 56 -57 0
9 -56 -57 0
-9 -56 57 0
9 56 57 0
-58 55 0
-58 57 0
-55 -57 58 0
-59 -27 0
-59 12 0
27 -12 59 0
-58 59 -60 0
58 -59 -60 0
-58 -59 60 0
58 59 60 0
62 60 0
62 -61 0
-60 61 -62 0
62 -55 -63 0
-62 55 -63 0
62 55 63 0
-62 -55 63 0
-64 -54 0
-64 -63 0
54 63 64 0
-21 65 -66 0
21 -65 -66 0
-21 -65 66 0
21 65 66 0
-67 53 0
-67 -56 0
-53 56 67 0
-66 67 -68 0
66 -67 -68 0
-66 -67 68 0
66 67 68 0
-61 -53 -69 0
61 53 -69 0
-61 53 69 0
61 -53 69 0
-69 -2 -70 0
69 2 -70 0
-69 2 70 0
69 -2 70 0
-71 -70 0
-71 -59 0
70 59 71 0
-22 71 -72 0
22 -71 -72 0
-22 -71 72 0
22 71 72 0
-37 12 -73 0
37 -12 -73 0
-37 -12 73 0
37 12 73 0
72 -73 -74 0
-72 73 -74 0
72 73 74 0
-72 -73 74 0
75 -68 0
75 74 0
68 -74 -75 0
-76 64 0
-76 -75 0
-64 75 76 0
-77 -51 0
-77 -76 0
51 76 77 0
-7 30 -78 0
7 -30 -78 0
-7 -30 78 0
7 30 78 0
79 -78 0
79 -1 0
78 1 -79 0
-70 -44 -80 0
70 44 -80 0
-70 44 80 0
70 -44 80 0
3 -19 -81 0
-3 19 -81 0
3 19 81 0
-3 -19 81 0
-80 81 -82 0
80 -81 -82 0
-80 -81 82 0
80 81 82 0
-26 20 -83 0
26 -20 -83 0
-26 -20 83 0
26 20 83 0
84 32 0
84 -83 0
-32 83 -84 0
-82 -84 -85 0
82 84 -85 0
-82 84 85 0
82 -84 85 0
-79 85 -86 0
79 -85 -86 0
-79 -85 86 0
79 85 86 0
27 -41 -87 0
-27 41 -87 0
27 41 87 0
-27 -41 87 0
-88 -87 0
-88 17 0
87 -17 88 0
-14 -13 -89 0
14 13 -89 0
-14 13 89 0
14 -13 89 0
-90 -88 0
-90 -89 0
88 89 90 0
-91 -55 0
-91 -32 0
55 32 91 0
56 -26 -92 0
-56 26 -92 0
56 26 92 0
-56 -26 92 0
-93 23 0
-93 -4 0
-23 4 93 0
94 -92 0
94 -93 0
92 93 -94 0
91 -94 -95 0
-91 94 -95 0
91 94 95 0
-91 -94 95 0
96 -90 0
96 -95 0
90 95 -96 0
-97 86 0
-97 -96 0
-86 96 97 0
77 -97 -98 0
-77 97 -98 0
77 97 98 0
-77 -97 98 0
99 -70 0
99 -29 0
70 29 -99 0
-100 -6 0
-100 99 0
6 -99 100 0
29 22 -101 0
-29 -22 -101 0
29 -22 101 0
-29 22 101 0
-102 -101 0
-102 -1 0
101 1 102 0
-103 53 0
-103 -102 0
-53 102 103 0
-104 -3 0
-104 59 0
3 -59 104 0
-105 52 0
-105 17 0
-52 -17 105 0
104 -105 -106 0
-104 105 -106 0
104 105 106 0
-104 -105 106 0
107 -103 0
107 -106 0
103 106 -107 0
-108 -100 0
-108 -107 0
100 107 108 0
-12 29 -109 0
12 -29 -109 0
-12 -29 109 0
12 29 109 0
-110 -9 0
-110 -109 0
9 109 110 0
-29 -52 -111 0
29 52 -111 0
-29 52 111 0
29 -52 111 0
112 -23 0
112 -111 0
23 111 -112 0
-113 110 0
-113 -112 0
-110 112 113 0
-114 -26 0
-114 -9 0
26 9 114 0
115 -6 0
115 -61 0
6 61 -115 0
116 -61 0
116 -115 0
61 115 -116 0
117 116 0
117 69 0
-116 -69 -117 0
-118 -8 0
-118 -11 0
8 11 118 0
-119 117 0
-119 118 0
-117 -118 119 0
120 -114 0
120 -119 0
114 119 -120 0
113 120 -121 0
-113 -120 -121 0
113 -120 121 0
-113 120 121 0
11 -16 -122 0
-11 16 -122 0
11 16 122 0
-11 -16 122 0
-123 -121 0
-123 122 0
121 -122 123 0
-124 20 0
-124 -29 0
-20 29 124 0
-125 123 0
-125 -124 0
-123 124 125 0
-126 108 0
-126 125 0
-108 -125 126 0
-98 -126 -127 0
98 126 -127 0
-98 126 127 0
98 -126 127 0
-16 -36 0
77 -95 0
109 -111 0
-78 98 -42 -75 125 53 0
-87 -11 59 -102 -112 35 0
-91 116 1 -65 -71 0
5 96 0
-51 113 0
-76 -45 110 0
80 -85 92 7 -69 0
-97 -119 -125 -19 -38 0
-80 74 -111 78 127 0
43 -106 29 -83 0
-5 -112 10 0
-124 1 23 108 22 -11 0
-16 102 -30 -13 125 0
-119 114 29 69 0
25 94 0
70 -76 42 0
97 83 67 -9 24 0
50 5 -8 -40 1 0
-67 52 0
85 -41 24 124 11 -57 0
-65 -125 92 -106 71 0
-59 -101 39 -15 18 67 0
74 -88 117 0
-24 -19 0
-14 120 0
-91 -55 89 39 3 0
71 105 7 0
25 -72 0
56 -118 10 66 76 0
-99 -41 108 76 2 56 0
-102 -68 47 -98 81 0
70 23 -18 78 -92 0
-99 63 21 -96 -15 0
17 99 28 -31 0
-20 -101 80 0
55 102 106 -121 97 29 0
73 121 -29 74 0
111 -118 36 105 0
-52 -25 0
-105 44 -109 -125 0
-33 66 104 48 0
-19 91 -8 108 59 0
-80 97 20 11 0
94 106 0
84 17 43 0
43 -99 0
97 -127 -4 0
118 83 31 126 7 -32 0
35 60 -104 -95 -38 0
-17 55 -118 -53 -51 49 0
51 82 -36 63 0
-82 -119 83 -43 -23 0
18 -78 4 0
12 79 52 -121 -4 0
127 0
